4 13 100 1 2
0 200
 1 40.00 50.00 0.00 0.00 0.00 0 0 0 240
 2 25.00 85.00 10.00 20.00 40.00 1 1 1 71 191
 3 22.00 75.00 10.00 30.00 19.00 1 1 1 30 150
 4 22.00 85.00 10.00 10.00 9.00 1 1 1 64 184
 5 20.00 80.00 10.00 40.00 10.00 1 1 1 151 161
 6 20.00 85.00 10.00 20.00 20.00 1 1 1 40 160
 7 18.00 75.00 10.00 20.00 23.00 1 1 1 96 123
 8 15.00 75.00 10.00 20.00 9.00 1 1 1 35 155
 9 15.00 80.00 10.00 10.00 21.00 1 1 1 101 111
 10 10.00 35.00 10.00 20.00 6.00 1 1 1 101 111
 11 10.00 40.00 10.00 30.00 10.00 1 1 1 123 144
 12 8.00 40.00 10.00 40.00 13.00 1 1 1 69 79
 13 8.00 45.00 10.00 20.00 6.00 1 1 1 32 152
 14 5.00 35.00 10.00 10.00 16.00 1 1 1 152 162
 15 5.00 45.00 10.00 10.00 30.00 1 1 1 35 117
 16 2.00 40.00 10.00 20.00 20.00 1 1 1 68 78
 17 0.00 40.00 10.00 20.00 10.00 1 1 1 59 114
 18 0.00 45.00 10.00 20.00 14.00 1 1 1 147 180
 19 44.00 5.00 10.00 20.00 17.00 1 1 1 79 124
 20 42.00 10.00 10.00 40.00 10.00 1 1 1 58 115
 21 42.00 15.00 10.00 10.00 10.00 1 1 1 111 162
 22 40.00 5.00 10.00 10.00 20.00 1 1 1 45 165
 23 40.00 15.00 10.00 40.00 19.00 1 1 1 94 119
 24 38.00 5.00 10.00 30.00 30.00 1 1 1 75 85
 25 38.00 15.00 10.00 10.00 20.00 1 1 1 128 194
 26 35.00 5.00 10.00 20.00 40.00 1 1 1 171 181
 27 95.00 30.00 10.00 30.00 27.00 1 1 1 58 171
 28 95.00 35.00 10.00 20.00 5.00 1 1 1 60 93
 29 92.00 30.00 10.00 10.00 20.00 1 1 1 55 120
 30 90.00 35.00 10.00 10.00 40.00 1 1 1 52 112
 31 88.00 30.00 10.00 10.00 20.00 1 1 1 75 102
 32 88.00 35.00 10.00 20.00 10.00 1 1 1 50 170
 33 87.00 30.00 10.00 10.00 10.00 1 1 1 116 175
 34 85.00 25.00 10.00 10.00 7.00 1 1 1 51 85
 35 85.00 35.00 10.00 30.00 16.00 1 1 1 62 182
 36 67.00 85.00 10.00 20.00 14.00 1 1 1 138 169
 37 65.00 85.00 10.00 40.00 26.00 1 1 1 43 78
 38 65.00 82.00 10.00 10.00 28.00 1 1 1 69 189
 39 62.00 80.00 10.00 30.00 5.00 1 1 1 85 95
 40 60.00 80.00 10.00 10.00 23.00 1 1 1 36 74
 41 60.00 85.00 10.00 30.00 20.00 1 1 1 87 112
 42 58.00 75.00 10.00 20.00 40.00 1 1 1 92 121
 43 55.00 80.00 10.00 10.00 10.00 1 1 1 33 66
 44 55.00 85.00 10.00 20.00 3.00 1 1 1 117 168
 45 55.00 82.00 10.00 10.00 35.00 1 1 1 74 84
 46 20.00 82.00 10.00 10.00 2.00 1 1 1 37 72
 47 18.00 80.00 10.00 10.00 19.00 1 1 1 98 157
 48 2.00 45.00 10.00 10.00 16.00 1 1 1 38 109
 49 42.00 5.00 10.00 10.00 10.00 1 1 1 64 184
 50 42.00 12.00 10.00 10.00 10.00 1 1 1 109 128
 51 72.00 35.00 10.00 30.00 13.00 1 1 1 71 191
 52 55.00 20.00 10.00 19.00 20.00 1 1 1 69 126
 53 25.00 30.00 10.00 3.00 25.00 1 1 1 25 145
 54 20.00 50.00 10.00 5.00 3.00 1 1 1 101 111
 55 55.00 60.00 10.00 16.00 30.00 1 1 1 127 180
 56 30.00 60.00 10.00 16.00 10.00 1 1 1 150 160
 57 50.00 35.00 10.00 19.00 20.00 1 1 1 130 159
 58 30.00 25.00 10.00 23.00 10.00 1 1 1 82 139
 59 15.00 10.00 10.00 20.00 10.00 1 1 1 172 182
 60 10.00 20.00 10.00 19.00 20.00 1 1 1 42 162
 61 15.00 60.00 10.00 17.00 20.00 1 1 1 137 202
 62 45.00 65.00 10.00 9.00 20.00 1 1 1 55 106
 63 65.00 35.00 10.00 3.00 30.00 1 1 1 62 72
 64 65.00 20.00 10.00 6.00 10.00 1 1 1 39 108
 65 45.00 30.00 10.00 17.00 31.00 1 1 1 53 82
 66 35.00 40.00 10.00 16.00 23.00 1 1 1 11 43
 67 41.00 37.00 10.00 16.00 20.00 1 1 1 134 161
 68 64.00 42.00 10.00 9.00 8.00 1 1 1 80 90
 69 40.00 60.00 10.00 21.00 30.00 1 1 1 144 173
 70 31.00 52.00 10.00 27.00 9.00 1 1 1 51 61
 71 35.00 69.00 10.00 23.00 10.00 1 1 1 172 210
 72 65.00 55.00 10.00 14.00 30.00 1 1 1 52 107
 73 63.00 65.00 10.00 8.00 19.00 1 1 1 27 147
 74 2.00 60.00 10.00 5.00 30.00 1 1 1 65 118
 75 20.00 20.00 10.00 8.00 10.00 1 1 1 151 161
 76 5.00 5.00 10.00 16.00 13.00 1 1 1 57 172
 77 60.00 12.00 10.00 31.00 10.00 1 1 1 85 95
 78 23.00 3.00 10.00 7.00 10.00 1 1 1 163 173
 79 8.00 56.00 10.00 27.00 27.00 1 1 1 90 119
 80 6.00 68.00 10.00 30.00 20.00 1 1 1 99 109
 81 47.00 47.00 10.00 13.00 16.00 1 1 1 190 222
 82 49.00 58.00 10.00 10.00 20.00 1 1 1 80 121
 83 27.00 43.00 10.00 9.00 10.00 1 1 1 14 134
 84 37.00 31.00 10.00 14.00 10.00 1 1 1 19 139
 85 57.00 29.00 10.00 18.00 30.00 1 1 1 106 116
 86 63.00 23.00 10.00 2.00 10.00 1 1 1 42 162
 87 21.00 24.00 10.00 28.00 14.00 1 1 1 77 126
 88 12.00 24.00 10.00 13.00 9.00 1 1 1 100 110
 89 24.00 58.00 10.00 19.00 15.00 1 1 1 67 96
 90 67.00 5.00 10.00 25.00 10.00 1 1 1 105 177
 91 37.00 47.00 10.00 6.00 18.00 1 1 1 74 127
 92 49.00 42.00 10.00 13.00 40.00 1 1 1 97 217
 93 53.00 43.00 10.00 14.00 6.00 1 1 1 15 25
 94 61.00 52.00 10.00 3.00 17.00 1 1 1 173 208
 95 57.00 48.00 10.00 23.00 20.00 1 1 1 50 170
 96 56.00 37.00 10.00 6.00 30.00 1 1 1 20 140
 97 55.00 54.00 10.00 26.00 3.00 1 1 1 87 207
 98 4.00 18.00 10.00 35.00 3.00 1 1 1 112 157
 99 26.00 52.00 10.00 9.00 16.00 1 1 1 14 134
 100 26.00 35.00 10.00 15.00 20.00 1 1 1 87 97
 101 31.00 67.00 10.00 3.00 8.00 1 1 1 200 210
